\ LP format - for model browsing. Use MPS format to capture full model detail.
Minimize
  0 B18(0) + 0 B19(0) + 0 B25(0) + 0 B26(0) + 0 B27(0) + 0 B28(0) + 0 B29(0)
   + 0 B32(0) + 0 B33(0) + 0 B37(0) + 0 B38(0) + 0 B43(0) + 0 B44(0)
   + 0 B45(0) + 0 B46(0) + 0 B47(0) + 0 B48(0) + 0 B50(0) + 0 B51(0)
   + 0 B54(0) + 0 B55(0) + 0 B56(0) + 0 B58(0) + 0 B59(0) + 0 B60(0)
   + 0 B63(0) + 0 B64(0) + 0 B65(0) + 0 B66(0) + 0 B67(0) + 0 B68(0)
   + 0 B71(0) + 0 B72(0) + 0 B73(0) + 0 B74(0) + 0 B75(0) + 0 B76(0)
   + 0 B77(0) + 0 B78(0) + 0 B80(0) + 0 B81(0) + 0 B82(0) + 0 B83(0)
   + 0 B84(0) + 0 B85(0) + 0 B86(0) + 0 B88(0) + 0 B90(0) + 0 B91(0)
   + 0 B92(0) + 0 B93(0) + 0 B94(0) + 0 B95(0) + 0 B96(0) + 0 B98(0)
   + I117(1)
Subject To
 c0: B0(13) + B1(13) = 1
 c1: B2(6) + B3(12) = 1
 c2: B4(12) + B5(12) = 1
 c3: B6(15) + B7(13) = 1
 c4: B8(14) + B9(12) = 1
 c5: B10(8) + B11(10) = 1
 c6: B12(11) + B13(11) = 1
 c7: B14(10) + B15(14) = 1
 c8: B16(6) + B17(14) = 1
 c9: - 1e+06 B0(13) + C99(15) <= 0
 c10: - 1e+06 B1(13) + C100(15) <= 0
 c11: - 1e+06 B2(6) + C101(7) <= 0
 c12: - 1e+06 B3(12) + C102(13) <= 0
 c13: - 1e+06 B4(12) + C103(12) <= 0
 c14: - 1e+06 B5(12) + C104(12) <= 0
 c15: - 1e+06 B6(15) + C105(17) <= 0
 c16: - 1e+06 B7(13) + C106(15) <= 0
 c17: - 1e+06 B8(14) + C107(15) <= 0
 c18: - 1e+06 B9(12) + C108(13) <= 0
 c19: - 1e+06 B10(8) + C109(8) <= 0
 c20: - 1e+06 B11(10) + C110(10) <= 0
 c21: - 1e+06 B12(11) + C111(14) <= 0
 c22: - 1e+06 B13(11) + C112(14) <= 0
 c23: - 1e+06 B14(10) + C113(10) <= 0
 c24: - 1e+06 B15(14) + C114(14) <= 0
 c25: - 1e+06 B16(6) + C115(6) <= 0
 c26: - 1e+06 B17(14) + C116(14) <= 0
 c27: - 1e+06 B0(13) - 1e+06 B4(12) - 1e+06 B20(4) + C99(15) - C103(12)
   >= -2.999986e+06
 c28: - 1e+06 B0(13) - 1e+06 B4(12) + 1e+06 B20(4) - C99(15) + C103(12)
   >= -1.999991e+06
 c29: - 1e+06 B1(13) - 1e+06 B5(12) - 1e+06 B20(4) + C100(15) - C104(12)
   >= -2.999987e+06
 c30: - 1e+06 B1(13) - 1e+06 B5(12) + 1e+06 B20(4) - C100(15) + C104(12)
   >= -1.99999e+06
 c31: - 1e+06 B0(13) - 1e+06 B7(13) - 1e+06 B21(2) + C99(15) - C106(15)
   >= -2.999978e+06
 c32: - 1e+06 B0(13) - 1e+06 B7(13) + 1e+06 B21(2) - C99(15) + C106(15)
   >= -1.999991e+06
 c33: - 1e+06 B0(13) - 1e+06 B9(12) - 1e+06 B22(2) + C99(15) - C108(13)
   >= -2.999991e+06
 c34: - 1e+06 B0(13) - 1e+06 B9(12) + 1e+06 B22(2) - C99(15) + C108(13)
   >= -1.999972e+06
 c35: - 1e+06 B1(13) - 1e+06 B11(10) - 1e+06 B23(2) + C100(15) - C110(10)
   >= -2.999989e+06
 c36: - 1e+06 B1(13) - 1e+06 B11(10) + 1e+06 B23(2) - C100(15) + C110(10)
   >= -1.999994e+06
 c37: - 1e+06 B1(13) - 1e+06 B13(11) - 1e+06 B24(2) + C100(15) - C112(14)
   >= -2.999985e+06
 c38: - 1e+06 B1(13) - 1e+06 B13(11) + 1e+06 B24(2) - C100(15) + C112(14)
   >= -1.999981e+06
 c39: - 1e+06 B3(12) - 1e+06 B6(15) - 1e+06 B30(2) + C102(13) - C105(17)
   >= -2.999981e+06
 c40: - 1e+06 B3(12) - 1e+06 B6(15) + 1e+06 B30(2) - C102(13) + C105(17)
   >= -1.999994e+06
 c41: - 1e+06 B3(12) - 1e+06 B8(14) - 1e+06 B31(2) + C102(13) - C107(15)
   >= -2.999993e+06
 c42: - 1e+06 B3(12) - 1e+06 B8(14) + 1e+06 B31(2) - C102(13) + C107(15)
   >= -1.999983e+06
 c43: - 1e+06 B3(12) - 1e+06 B15(14) - 1e+06 B34(2) + C102(13) - C114(14)
   >= -2.999986e+06
 c44: - 1e+06 B3(12) - 1e+06 B15(14) + 1e+06 B34(2) - C102(13) + C114(14)
   >= -1.999978e+06
 c45: - 1e+06 B2(6) - 1e+06 B16(6) - 1e+06 B35(4) + C101(7) - C115(6)
   >= -2.999978e+06
 c46: - 1e+06 B2(6) - 1e+06 B16(6) + 1e+06 B35(4) - C101(7) + C115(6)
   >= -1.99999e+06
 c47: - 1e+06 B3(12) - 1e+06 B17(14) - 1e+06 B35(4) + C102(13) - C116(14)
   >= -2.999975e+06
 c48: - 1e+06 B3(12) - 1e+06 B17(14) + 1e+06 B35(4) - C102(13) + C116(14)
   >= -1.999973e+06
 c49: - 1e+06 B0(13) - 1e+06 B4(12) - 1e+06 B36(4) - C99(15) + C103(12)
   >= -2.999991e+06
 c50: - 1e+06 B0(13) - 1e+06 B4(12) + 1e+06 B36(4) + C99(15) - C103(12)
   >= -1.999986e+06
 c51: - 1e+06 B1(13) - 1e+06 B5(12) - 1e+06 B36(4) - C100(15) + C104(12)
   >= -2.99999e+06
 c52: - 1e+06 B1(13) - 1e+06 B5(12) + 1e+06 B36(4) + C100(15) - C104(12)
   >= -1.999987e+06
 c53: - 1e+06 B4(12) - 1e+06 B7(13) - 1e+06 B39(2) + C103(12) - C106(15)
   >= -2.999988e+06
 c54: - 1e+06 B4(12) - 1e+06 B7(13) + 1e+06 B39(2) - C103(12) + C106(15)
   >= -1.999987e+06
 c55: - 1e+06 B4(12) - 1e+06 B9(12) - 1e+06 B40(2) + C103(12) - C108(13)
   >= -2.999986e+06
 c56: - 1e+06 B4(12) - 1e+06 B9(12) + 1e+06 B40(2) - C103(12) + C108(13)
   >= -1.999992e+06
 c57: - 1e+06 B5(12) - 1e+06 B11(10) - 1e+06 B41(2) + C104(12) - C110(10)
   >= -2.999991e+06
 c58: - 1e+06 B5(12) - 1e+06 B11(10) + 1e+06 B41(2) - C104(12) + C110(10)
   >= -1.999992e+06
 c59: - 1e+06 B5(12) - 1e+06 B13(11) - 1e+06 B42(2) + C104(12) - C112(14)
   >= -2.999989e+06
 c60: - 1e+06 B5(12) - 1e+06 B13(11) + 1e+06 B42(2) - C104(12) + C112(14)
   >= -1.999991e+06
 c61: - 1e+06 B6(15) - 1e+06 B8(14) - 1e+06 B49(4) + C105(17) - C107(15)
   >= -2.999981e+06
 c62: - 1e+06 B6(15) - 1e+06 B8(14) + 1e+06 B49(4) - C105(17) + C107(15)
   >= -1.99999e+06
 c63: - 1e+06 B7(13) - 1e+06 B9(12) - 1e+06 B49(4) + C106(15) - C108(13)
   >= -2.999993e+06
 c64: - 1e+06 B7(13) - 1e+06 B9(12) + 1e+06 B49(4) - C106(15) + C108(13)
   >= -1.999992e+06
 c65: - 1e+06 B6(15) - 1e+06 B15(14) - 1e+06 B52(2) + C105(17) - C114(14)
   >= -2.999986e+06
 c66: - 1e+06 B6(15) - 1e+06 B15(14) + 1e+06 B52(2) - C105(17) + C114(14)
   >= -1.99998e+06
 c67: - 1e+06 B6(15) - 1e+06 B17(14) - 1e+06 B53(2) + C105(17) - C116(14)
   >= -2.99998e+06
 c68: - 1e+06 B6(15) - 1e+06 B17(14) + 1e+06 B53(2) - C105(17) + C116(14)
   >= -1.99999e+06
 c69: - 1e+06 B6(15) - 1e+06 B8(14) - 1e+06 B57(4) - C105(17) + C107(15)
   >= -2.99999e+06
 c70: - 1e+06 B6(15) - 1e+06 B8(14) + 1e+06 B57(4) + C105(17) - C107(15)
   >= -1.999981e+06
 c71: - 1e+06 B7(13) - 1e+06 B9(12) - 1e+06 B57(4) - C106(15) + C108(13)
   >= -2.999992e+06
 c72: - 1e+06 B7(13) - 1e+06 B9(12) + 1e+06 B57(4) + C106(15) - C108(13)
   >= -1.999993e+06
 c73: - 1e+06 B8(14) - 1e+06 B15(14) - 1e+06 B61(2) + C107(15) - C114(14)
   >= -2.999986e+06
 c74: - 1e+06 B8(14) - 1e+06 B15(14) + 1e+06 B61(2) - C107(15) + C114(14)
   >= -1.999994e+06
 c75: - 1e+06 B8(14) - 1e+06 B17(14) - 1e+06 B62(2) + C107(15) - C116(14)
   >= -2.999986e+06
 c76: - 1e+06 B8(14) - 1e+06 B17(14) + 1e+06 B62(2) - C107(15) + C116(14)
   >= -1.999992e+06
 c77: - 1e+06 B10(8) - 1e+06 B12(11) - 1e+06 B69(4) + C109(8) - C111(14)
   >= -2.999992e+06
 c78: - 1e+06 B10(8) - 1e+06 B12(11) + 1e+06 B69(4) - C109(8) + C111(14)
   >= -1.99999e+06
 c79: - 1e+06 B11(10) - 1e+06 B13(11) - 1e+06 B69(4) + C110(10) - C112(14)
   >= -2.999983e+06
 c80: - 1e+06 B11(10) - 1e+06 B13(11) + 1e+06 B69(4) - C110(10) + C112(14)
   >= -1.999993e+06
 c81: - 1e+06 B10(8) - 1e+06 B14(10) - 1e+06 B70(2) + C109(8) - C113(10)
   >= -2.999994e+06
 c82: - 1e+06 B10(8) - 1e+06 B14(10) + 1e+06 B70(2) - C109(8) + C113(10)
   >= -1.99999e+06
 c83: - 1e+06 B12(11) - 1e+06 B14(10) - 1e+06 B79(2) + C111(14) - C113(10)
   >= -2.999992e+06
 c84: - 1e+06 B12(11) - 1e+06 B14(10) + 1e+06 B79(2) - C111(14) + C113(10)
   >= -1.999994e+06
 c85: - 1e+06 B12(11) - 1e+06 B14(10) - 1e+06 B87(2) - C111(14) + C113(10)
   >= -2.999994e+06
 c86: - 1e+06 B12(11) - 1e+06 B14(10) + 1e+06 B87(2) + C111(14) - C113(10)
   >= -1.999992e+06
 c87: - 1e+06 B15(14) - 1e+06 B17(14) - 1e+06 B89(2) + C114(14) - C116(14)
   >= -2.999985e+06
 c88: - 1e+06 B15(14) - 1e+06 B17(14) + 1e+06 B89(2) - C114(14) + C116(14)
   >= -1.999994e+06
 c89: - 1e+06 B15(14) - 1e+06 B17(14) - 1e+06 B97(2) - C114(14) + C116(14)
   >= -2.999994e+06
 c90: - 1e+06 B15(14) - 1e+06 B17(14) + 1e+06 B97(2) + C114(14) - C116(14)
   >= -1.999985e+06
 c91: C99(15) >= 0
 c92: - 2 B0(13) + C99(15) >= 0
 c93: C100(15) >= 0
 c94: - 2 B1(13) + C100(15) >= 0
 c95: C101(7) >= 0
 c96: - B2(6) + C101(7) >= 0
 c97: C102(13) >= 0
 c98: - B3(12) + C102(13) >= 0
 c99: C103(12) >= 0
 c100: - B4(12) + C103(12) >= 0
 c101: C104(12) >= 0
 c102: - B5(12) + C104(12) >= 0
 c103: C105(17) >= 0
 c104: - 3 B6(15) + C105(17) >= 0
 c105: C106(15) >= 0
 c106: - 3 B7(13) + C106(15) >= 0
 c107: C107(15) >= 0
 c108: - 2 B8(14) + C107(15) >= 0
 c109: C108(13) >= 0
 c110: - 2 B9(12) + C108(13) >= 0
 c111: C109(8) >= 0
 c112: - 2 B10(8) + C109(8) >= 0
 c113: C110(10) >= 0
 c114: - 2 B11(10) + C110(10) >= 0
 c115: C111(14) >= 0
 c116: - 2 B12(11) + C111(14) >= 0
 c117: C112(14) >= 0
 c118: - 2 B13(11) + C112(14) >= 0
 c119: C113(10) >= 0
 c120: - B14(10) + C113(10) >= 0
 c121: C114(14) >= 0
 c122: - B15(14) + C114(14) >= 0
 c123: C115(6) >= 0
 c124: - 2 B16(6) + C115(6) >= 0
 c125: C116(14) >= 0
 c126: - 2 B17(14) + C116(14) >= 0
 c127: - 2 B2(6) - 2 B3(12) + C99(15) + C100(15) - C101(7) - C102(13) >= 0
 c128: - 5 B4(12) - 4 B5(12) + C101(7) + C102(13) - C103(12) - C104(12)
   >= 0
 c129: - 4 B8(14) - 5 B9(12) + C105(17) + C106(15) - C107(15) - C108(13)
   >= 0
 c130: - 5 B10(8) - 3 B11(10) + C107(15) + C108(13) - C109(8) - C110(10)
   >= 0
 c131: - 2 B14(10) - 2 B15(14) + C111(14) + C112(14) - C113(10) - C114(14)
   >= 0
 c132: - 2 B16(6) - 5 B17(14) + C111(14) + C112(14) - C115(6) - C116(14)
   >= 0
 c133: 3 B0(13) + C99(15) - 1e+06 B118(4) >= -999985
 c134: 3 B0(13) + C99(15) - 1e+06 B118(4) <= 15
 c135: 4 B1(13) + C100(15) - 1e+06 B119(4) >= -999985
 c136: 4 B1(13) + C100(15) - 1e+06 B119(4) <= 15
 c137: 4 B6(15) + C105(17) - 1e+06 B120(4) >= -999985
 c138: 4 B6(15) + C105(17) - 1e+06 B120(4) <= 15
 c139: 2 B7(13) + C106(15) - 1e+06 B121(4) >= -999985
 c140: 2 B7(13) + C106(15) - 1e+06 B121(4) <= 15
 c141: 4 B12(11) + C111(14) - 1e+06 B122(4) >= -999994
 c142: 4 B12(11) + C111(14) - 1e+06 B122(4) <= 6
 c143: 5 B13(11) + C112(14) - 1e+06 B123(4) >= -999994
 c144: 5 B13(11) + C112(14) - 1e+06 B123(4) <= 6
 qc0: I117(1) + 12 B118(4) + 11 B119(4) + 11 B120(4) + 13 B121(4)
   + 2 B122(4) + B123(4) + [ - C99(15) * B118(4) - C100(15) * B119(4)
   - C105(17) * B120(4) - C106(15) * B121(4) - C111(14) * B122(4)
   - C112(14) * B123(4) ] >= 0
Bounds
Binaries
 B0(13) B1(13) B2(6) B3(12) B4(12) B5(12) B6(15) B7(13) B8(14) B9(12)
 B10(8) B11(10) B12(11) B13(11) B14(10) B15(14) B16(6) B17(14) B18(0)
 B19(0) B20(4) B21(2) B22(2) B23(2) B24(2) B25(0) B26(0) B27(0) B28(0)
 B29(0) B30(2) B31(2) B32(0) B33(0) B34(2) B35(4) B36(4) B37(0) B38(0)
 B39(2) B40(2) B41(2) B42(2) B43(0) B44(0) B45(0) B46(0) B47(0) B48(0)
 B49(4) B50(0) B51(0) B52(2) B53(2) B54(0) B55(0) B56(0) B57(4) B58(0)
 B59(0) B60(0) B61(2) B62(2) B63(0) B64(0) B65(0) B66(0) B67(0) B68(0)
 B69(4) B70(2) B71(0) B72(0) B73(0) B74(0) B75(0) B76(0) B77(0) B78(0)
 B79(2) B80(0) B81(0) B82(0) B83(0) B84(0) B85(0) B86(0) B87(2) B88(0)
 B89(2) B90(0) B91(0) B92(0) B93(0) B94(0) B95(0) B96(0) B97(2) B98(0)
 B118(4) B119(4) B120(4) B121(4) B122(4) B123(4)
Generals
 I117(1)
End
